
n_res = 4;
rcap = [23, 23, 404, 357];
rtype = [1, 1, 2, 2];
n_tasks = 100;
modes =  [{1, 2, 3}, {4, 5, 6}, {7, 8, 9}, {10, 11, 12}, {13, 14, 15}, {16, 17, 18}, {19, 20, 21}, {22, 23, 24}, {25, 26, 27}, {28, 29, 30}, {31, 32, 33}, {34, 35, 36}, {37, 38, 39}, {40, 41, 42}, {43, 44, 45}, {46, 47, 48}, {49, 50, 51}, {52, 53, 54}, {55, 56, 57}, {58, 59, 60}, {61, 62, 63}, {64, 65, 66}, {67, 68, 69}, {70, 71, 72}, {73, 74, 75}, {76, 77, 78}, {79, 80, 81}, {82, 83, 84}, {85, 86, 87}, {88, 89, 90}, {91, 92, 93}, {94, 95, 96}, {97, 98, 99}, {100, 101, 102}, {103, 104, 105}, {106, 107, 108}, {109, 110, 111}, {112, 113, 114}, {115, 116, 117}, {118, 119, 120}, {121, 122, 123}, {124, 125, 126}, {127, 128, 129}, {130, 131, 132}, {133, 134, 135}, {136, 137, 138}, {139, 140, 141}, {142, 143, 144}, {145, 146, 147}, {148, 149, 150}, {151, 152, 153}, {154, 155, 156}, {157, 158, 159}, {160, 161, 162}, {163, 164, 165}, {166, 167, 168}, {169, 170, 171}, {172, 173, 174}, {175, 176, 177}, {178, 179, 180}, {181, 182, 183}, {184, 185, 186}, {187, 188, 189}, {190, 191, 192}, {193, 194, 195}, {196, 197, 198}, {199, 200, 201}, {202, 203, 204}, {205, 206, 207}, {208, 209, 210}, {211, 212, 213}, {214, 215, 216}, {217, 218, 219}, {220, 221, 222}, {223, 224, 225}, {226, 227, 228}, {229, 230, 231}, {232, 233, 234}, {235, 236, 237}, {238, 239, 240}, {241, 242, 243}, {244, 245, 246}, {247, 248, 249}, {250, 251, 252}, {253, 254, 255}, {256, 257, 258}, {259, 260, 261}, {262, 263, 264}, {265, 266, 267}, {268, 269, 270}, {271, 272, 273}, {274, 275, 276}, {277, 278, 279}, {280, 281, 282}, {283, 284, 285}, {286, 287, 288}, {289, 290, 291}, {292, 293, 294}, {295, 296, 297}, {298, 299, 300}];
succ =  [{28, 26, 21, 18, 17, 16, 12}, {28, 27, 18, 17, 16, 15, 12}, {27, 26, 21, 18, 16, 11}, {28, 27, 18, 17, 16, 12}, {27, 18, 14, 13, 11}, {27, 19, 18, 15, 14}, {29, 28, 27, 25, 14, 13}, {27, 25, 21, 19, 17}, {28, 21, 18, 16, 15}, {27, 17, 16, 15, 14}, {41, 29, 28, 23, 17}, {31, 29, 14}, {41, 23, 17}, {41, 38, 35, 23, 20}, {35, 31, 29, 23, 20}, {37, 35, 33, 32, 31, 30, 29, 24, 23}, {38, 35, 34, 31, 20}, {42, 34, 33, 32, 25}, {41, 31, 29, 28, 23}, {37, 33, 32, 30, 24}, {43, 42, 36, 35, 32, 31, 30}, {38, 37, 23}, {43, 42, 39, 36, 34}, {44, 43, 42, 39, 36}, {52, 41, 39, 38, 36}, {52, 48, 42, 33, 32}, {43, 42, 34, 30}, {52, 43, 42, 39, 36}, {40, 39, 34}, {40, 39}, {54, 50, 47, 40}, {54, 46, 39}, {43, 40}, {60, 54, 53, 51, 47, 44}, {60, 53, 51, 47, 45, 44}, {54, 48, 40}, {59, 49, 48, 47, 46, 45}, {51, 49, 45, 43}, {60, 53, 51, 50, 47, 45}, {59, 53, 49, 46, 45}, {59, 55, 51, 48, 46}, {64, 60, 59, 57, 53, 51, 45}, {70, 62, 60, 55, 54, 53, 47}, {67, 63, 62, 58, 57, 52, 49}, {81, 71, 70, 69, 67, 63, 62, 56, 55}, {81, 70, 67, 63, 60, 58, 57}, {81, 69, 67, 64, 61, 58, 57}, {70, 66, 64, 62, 61, 53}, {81, 71, 70, 69, 64, 61, 55}, {81, 71, 69, 67, 59, 55}, {81, 70, 67, 56}, {81, 73, 72, 69, 68, 61, 59}, {85, 81, 80, 71, 69, 65, 63}, {82, 81, 80, 79, 78, 75, 74, 72, 71, 66}, {82, 78, 74, 73, 68, 66, 65}, {68, 66, 65, 61}, {80, 79, 78, 74, 73, 66, 65}, {80, 78, 72, 71, 68, 66}, {87, 84, 82, 80, 79, 76, 75, 74, 70}, {100, 82, 80, 75, 74, 72, 69}, {100, 99, 87, 85, 82, 79, 78, 76, 74}, {100, 99, 84, 80, 79, 78, 74, 72}, {84, 82, 75, 74, 68}, {100, 97, 90, 89, 87, 85, 84, 80, 78, 76}, {100, 98, 87, 84, 83, 75, 72}, {100, 99, 98, 91, 89, 87, 86, 85, 84, 77}, {100, 99, 91, 89, 88, 86, 84, 80, 78, 77}, {100, 98, 91, 90, 87, 86, 83, 79}, {99, 89, 87, 86, 78, 77}, {100, 99, 97, 91, 89, 88, 78}, {98, 95, 87, 86, 77}, {97, 96, 90, 89, 76}, {99, 98, 97, 96, 93, 91, 90, 89}, {98, 97, 95, 94, 89, 83}, {99, 97, 95, 94, 93, 88}, {94, 91, 88, 86}, {97, 90, 83}, {98, 96, 95, 94, 93, 92}, {97, 96, 94, 93, 89}, {95, 94, 83}, {96, 95, 93, 89}, {93, 90, 88}, {96, 93, 92}, {96, 95, 92}, {94, 88}, {93, 92}, {88}, {92}, {92}, {94}, {95}, {}, {}, {}, {}, {}, {}, {}, {}, {}];
n_opt = 300;
dur = [2, 3, 7, 1, 2, 6, 1, 6, 7, 3, 3, 4, 1, 4, 4, 2, 6, 6, 3, 4, 5, 1, 3, 6, 1, 3, 7, 6, 6, 7, 1, 2, 8, 3, 4, 10, 2, 3, 8, 1, 2, 10, 4, 8, 9, 2, 4, 9, 1, 7, 8, 8, 8, 9, 2, 2, 5, 3, 5, 7, 5, 9, 10, 6, 7, 10, 1, 8, 9, 2, 8, 10, 3, 5, 8, 1, 5, 8, 6, 7, 9, 4, 9, 10, 8, 9, 10, 3, 4, 5, 1, 8, 10, 2, 6, 7, 6, 7, 9, 1, 4, 5, 1, 8, 9, 3, 7, 8, 2, 6, 9, 2, 8, 10, 1, 6, 9, 1, 3, 5, 2, 3, 6, 1, 5, 7, 2, 3, 5, 3, 8, 9, 1, 7, 10, 2, 6, 7, 3, 4, 8, 4, 5, 8, 4, 6, 10, 9, 9, 10, 6, 8, 8, 7, 8, 10, 2, 3, 7, 4, 6, 10, 2, 4, 10, 2, 4, 9, 3, 5, 6, 3, 6, 10, 5, 9, 10, 4, 6, 7, 8, 9, 10, 1, 2, 3, 4, 5, 10, 2, 3, 4, 4, 5, 9, 2, 4, 9, 4, 6, 7, 2, 7, 8, 2, 10, 10, 1, 1, 2, 2, 9, 10, 3, 4, 5, 2, 7, 9, 4, 6, 8, 4, 7, 9, 3, 7, 10, 3, 4, 9, 2, 4, 7, 4, 5, 7, 2, 8, 9, 1, 2, 5, 3, 6, 10, 2, 7, 8, 1, 4, 8, 2, 3, 6, 7, 8, 10, 3, 5, 7, 3, 6, 8, 2, 5, 8, 4, 7, 8, 2, 7, 9, 1, 9, 10, 3, 8, 9, 2, 5, 10, 6, 7, 8, 1, 6, 10, 1, 2, 5, 3, 5, 7, 2, 4, 7, 2, 4, 6];
rreq = [|4, 4, 4, 4, 2, 2, 4, 2, 2, 5, 4, 3, 4, 2, 2, 3, 3, 3, 2, 2, 1, 3, 3, 2, 4, 3, 3, 3, 2, 1, 3, 1, 1, 1, 1, 1, 2, 1, 1, 3, 3, 1, 5, 3, 2, 4, 3, 3, 5, 3, 3, 5, 3, 3, 5, 3, 3, 3, 2, 2, 4, 3, 3, 5, 4, 3, 3, 2, 2, 1, 1, 1, 2, 2, 2, 2, 2, 2, 5, 5, 5, 4, 4, 4, 4, 3, 1, 5, 3, 2, 5, 3, 2, 5, 2, 1, 3, 2, 2, 5, 4, 3, 4, 2, 2, 5, 3, 2, 1, 1, 1, 1, 1, 1, 5, 3, 3, 2, 2, 2, 5, 5, 5, 4, 3, 3, 1, 1, 1, 5, 3, 2, 4, 3, 3, 1, 1, 1, 2, 1, 1, 5, 3, 2, 1, 1, 1, 1, 1, 1, 2, 2, 2, 5, 5, 5, 2, 2, 1, 3, 2, 2, 1, 1, 1, 5, 5, 5, 4, 4, 4, 4, 3, 2, 2, 1, 1, 2, 2, 2, 1, 1, 1, 3, 2, 2, 4, 4, 4, 3, 2, 2, 4, 4, 4, 3, 3, 3, 4, 4, 4, 4, 3, 2, 4, 4, 4, 3, 3, 1, 5, 3, 2, 1, 1, 1, 2, 1, 1, 3, 2, 1, 2, 2, 2, 3, 2, 2, 2, 1, 1, 2, 2, 2, 5, 4, 4, 3, 3, 3, 4, 4, 4, 4, 3, 2, 1, 1, 1, 5, 2, 1, 3, 2, 2, 1, 1, 1, 5, 4, 4, 4, 3, 3, 4, 3, 2, 5, 5, 5, 5, 2, 1, 5, 3, 3, 4, 4, 4, 4, 2, 2, 3, 3, 3, 2, 2, 2, 3, 2, 1, 2, 2, 1, 2, 2, 2, 3, 2, 1
 |2, 2, 2, 5, 4, 4, 5, 4, 4, 3, 2, 2, 5, 5, 5, 4, 4, 4, 3, 2, 1, 3, 2, 2, 4, 3, 2, 2, 1, 1, 4, 3, 3, 4, 3, 3, 3, 3, 1, 2, 2, 2, 5, 4, 4, 5, 4, 4, 5, 5, 5, 4, 4, 4, 2, 2, 2, 4, 3, 3, 3, 3, 3, 5, 2, 2, 4, 2, 2, 3, 2, 1, 5, 4, 4, 5, 5, 5, 4, 3, 3, 5, 4, 4, 3, 3, 2, 4, 4, 3, 1, 1, 1, 3, 2, 2, 5, 3, 3, 3, 3, 3, 5, 4, 4, 3, 3, 3, 3, 3, 3, 4, 4, 4, 4, 2, 2, 2, 1, 1, 3, 2, 2, 1, 1, 1, 1, 1, 1, 2, 2, 1, 3, 3, 2, 5, 5, 5, 3, 2, 2, 2, 2, 1, 4, 3, 1, 5, 4, 2, 3, 2, 2, 2, 2, 2, 4, 3, 2, 4, 3, 3, 1, 1, 1, 3, 3, 3, 2, 2, 2, 1, 1, 1, 3, 3, 2, 2, 2, 2, 5, 2, 1, 4, 3, 3, 4, 3, 3, 4, 4, 4, 4, 4, 4, 3, 3, 2, 2, 2, 2, 5, 3, 3, 3, 3, 3, 4, 2, 2, 5, 3, 2, 4, 3, 3, 2, 2, 2, 4, 4, 4, 3, 1, 1, 4, 2, 2, 4, 4, 4, 3, 3, 3, 2, 2, 2, 3, 3, 2, 4, 2, 1, 5, 4, 3, 5, 4, 4, 1, 1, 1, 4, 4, 4, 4, 4, 4, 5, 4, 4, 5, 3, 3, 4, 4, 4, 3, 1, 1, 5, 3, 3, 4, 4, 4, 5, 4, 3, 3, 2, 2, 3, 1, 1, 2, 1, 1, 3, 2, 1, 5, 4, 4, 5, 4, 4, 3, 3, 3
 |0, 7, 4, 7, 5, 0, 0, 7, 0, 5, 0, 0, 7, 0, 4, 0, 0, 5, 0, 0, 0, 0, 0, 1, 0, 0, 0, 0, 3, 0, 1, 1, 0, 6, 0, 4, 5, 4, 0, 8, 4, 4, 0, 5, 4, 0, 0, 9, 0, 1, 0, 0, 6, 0, 1, 0, 1, 8, 7, 6, 10, 0, 2, 0, 0, 0, 5, 5, 1, 7, 5, 5, 0, 7, 3, 3, 2, 1, 0, 5, 4, 4, 0, 1, 0, 9, 8, 0, 0, 0, 0, 5, 4, 0, 8, 8, 6, 5, 0, 0, 3, 2, 0, 6, 0, 1, 1, 1, 4, 3, 0, 6, 5, 0, 2, 2, 1, 6, 5, 0, 0, 0, 0, 6, 0, 2, 8, 7, 0, 8, 5, 3, 9, 7, 6, 0, 5, 0, 5, 4, 3, 8, 5, 4, 9, 0, 8, 4, 0, 0, 0, 5, 0, 0, 0, 0, 0, 0, 0, 0, 4, 0, 0, 0, 8, 0, 4, 0, 0, 5, 0, 0, 6, 0, 0, 6, 6, 5, 4, 3, 0, 4, 4, 0, 0, 0, 7, 0, 0, 0, 0, 1, 9, 7, 1, 0, 7, 0, 10, 0, 8, 10, 7, 0, 6, 5, 0, 0, 5, 2, 0, 0, 8, 6, 6, 5, 0, 8, 7, 10, 9, 8, 0, 0, 0, 5, 5, 4, 0, 0, 0, 0, 6, 4, 6, 6, 4, 3, 0, 0, 9, 0, 8, 0, 0, 0, 4, 4, 0, 0, 2, 0, 5, 4, 0, 8, 0, 5, 0, 4, 0, 6, 5, 0, 8, 6, 0, 0, 6, 0, 8, 0, 4, 0, 2, 1, 0, 4, 3, 5, 0, 3, 0, 9, 8, 7, 5, 3, 0, 7, 3, 8, 7, 6, 3, 3, 2, 4, 3, 2
 |9, 0, 0, 0, 0, 4, 3, 0, 2, 0, 4, 3, 0, 3, 0, 7, 6, 0, 10, 9, 9, 8, 7, 0, 5, 2, 1, 9, 0, 7, 0, 0, 1, 0, 9, 0, 0, 0, 7, 0, 0, 0, 4, 0, 0, 9, 8, 0, 3, 0, 1, 1, 0, 1, 0, 5, 0, 0, 0, 0, 0, 7, 0, 4, 4, 3, 0, 0, 0, 0, 0, 0, 5, 0, 0, 0, 0, 0, 5, 0, 0, 0, 7, 0, 4, 0, 0, 3, 3, 2, 9, 0, 0, 7, 0, 0, 0, 0, 4, 6, 0, 0, 6, 0, 4, 0, 0, 0, 0, 0, 5, 0, 0, 1, 0, 0, 0, 0, 0, 6, 8, 6, 5, 0, 7, 0, 0, 0, 7, 0, 0, 0, 0, 0, 0, 5, 0, 4, 0, 0, 0, 0, 0, 0, 0, 1, 0, 0, 5, 4, 5, 0, 2, 4, 3, 2, 7, 7, 6, 7, 0, 3, 10, 9, 0, 8, 0, 7, 8, 0, 4, 9, 0, 6, 6, 0, 0, 0, 0, 0, 4, 0, 0, 7, 7, 6, 0, 4, 3, 3, 1, 0, 0, 0, 0, 8, 0, 7, 0, 7, 0, 0, 0, 2, 0, 0, 2, 7, 0, 0, 8, 5, 0, 0, 0, 0, 10, 0, 0, 0, 0, 0, 4, 4, 3, 0, 0, 0, 6, 2, 1, 6, 0, 0, 0, 0, 0, 0, 1, 1, 0, 7, 0, 7, 5, 2, 0, 0, 8, 7, 0, 6, 0, 0, 9, 0, 8, 0, 8, 0, 6, 0, 0, 6, 0, 0, 3, 8, 0, 6, 0, 7, 0, 3, 0, 0, 5, 0, 0, 0, 4, 0, 9, 0, 0, 0, 0, 0, 7, 0, 0, 0, 0, 0, 0, 0, 0, 0, 0, 0|];